% File represents an instance of a Composite Structure problem to be solved by a CP framework
% Created on 2025-03-26 10:41:51.878
T = 58;
n = 36;
m = 60;
edges = [(1, 2),
(7, 8),
(13, 14),
(20, 19),
(26, 25),
(32, 31),
(3, 2),
(8, 9),
(14, 15),
(20, 21),
(26, 27),
(32, 33),
(3, 4),
(9, 10),
(15, 16),
(22, 21),
(27, 28),
(33, 34),
(4, 5),
(10, 11),
(16, 17),
(22, 23),
(29, 28),
(35, 34),
(6, 5),
(12, 11),
(18, 17),
(24, 23),
(30, 29),
(35, 36),
(7, 1),
(7, 13),
(13, 19),
(19, 25),
(31, 25),
(8, 2),
(8, 14),
(20, 14),
(20, 26),
(32, 26),
(3, 9),
(9, 15),
(21, 15),
(21, 27),
(33, 27),
(4, 10),
(10, 16),
(22, 16),
(22, 28),
(34, 28),
(5, 11),
(11, 17),
(23, 17),
(29, 23),
(35, 29),
(6, 12),
(12, 18),
(24, 18),
(30, 24),
(30, 36)];
counts = [|22, 6, 22, 6,
|22, 6, 22, 4,
|22, 6, 22, 6,
|20, 6, 20, 6,
|20, 4, 20, 6,
|20, 10, 20, 6,
|22, 8, 22, 6,
|22, 8, 22, 4,
|22, 6, 22, 4,
|20, 4, 20, 4,
|20, 2, 20, 2,
|20, 6, 20, 4,
|20, 8, 20, 6,
|20, 8, 20, 4,
|20, 4, 20, 4,
|20, 2, 20, 4,
|18, 2, 18, 2,
|20, 2, 20, 4,
|18, 8, 18, 6,
|20, 8, 20, 6,
|20, 6, 20, 4,
|20, 8, 20, 4,
|18, 8, 18, 2,
|20, 8, 20, 4,
|18, 6, 18, 6,
|20, 6, 20, 6,
|20, 4, 20, 4,
|20, 4, 20, 2,
|20, 8, 20, 2,
|22, 8, 22, 4,
|18, 10, 18, 8,
|20, 10, 20, 8,
|20, 10, 20, 4,
|20, 10, 20, 2,
|20, 12, 20, 4,
|20, 8, 20, 2|];
